
Gurobi 11.0.0 (linux64) logging started Mon Apr 15 09:17:44 2024

Set parameter LogFile to value "/lustre1/scratch/348/vsc34888/JointResearch/05.Models/06.Benchmarking/L.Cont_Investments_per_hour/RTS24_ByStages_nc100/openStarNet_RTS24_ByStages_nc100.log"
Set parameter Method to value 2
Set parameter MIPFocus to value 1
Set parameter Presolve to value 2
Set parameter RINS to value 100
Set parameter MIPGap to value 0.01
Set parameter Threads to value 36
Set parameter TimeLimit to value 259200
Set parameter IterationLimit to value 760000000
Gurobi Optimizer version 11.0.0 build v11.0.0rc2 (linux64 - "Rocky Linux 8.8 (Green Obsidian)")

CPU model: Intel(R) Xeon(R) Gold 6140 CPU @ 2.30GHz, instruction set [SSE2|AVX|AVX2|AVX512]
Thread count: 36 physical cores, 36 logical processors, using up to 36 threads

Optimize a model with 38903 rows, 23457 columns and 104380 nonzeros
Model fingerprint: 0xa67225a5
Variable types: 23427 continuous, 30 integer (30 binary)
Coefficient statistics:
  Matrix range     [3e-02, 3e+02]
  Objective range  [1e+00, 1e+00]
  Bounds range     [4e-04, 3e+00]
  RHS range        [4e-04, 3e+00]
Presolve removed 20871 rows and 11082 columns
Presolve time: 0.16s
Presolved: 18032 rows, 12375 columns, 63577 nonzeros
Variable types: 12345 continuous, 30 integer (30 binary)
Found heuristic solution: objective 331.2222803
Root relaxation presolved: 18032 rows, 12375 columns, 63577 nonzeros

Root barrier log...

Ordering time: 0.01s

Barrier statistics:
 Dense cols : 30
 AA' NZ     : 1.334e+05
 Factor NZ  : 3.476e+05 (roughly 15 MB of memory)
 Factor Ops : 7.401e+06 (less than 1 second per iteration)
 Threads    : 36

                  Objective                Residual
Iter       Primal          Dual         Primal    Dual     Compl     Time
   0   7.97045345e+05 -4.93870775e+07  6.88e+00 1.33e+02  3.79e+03     0s
   1   1.36914386e+05 -1.43146421e+07  9.51e-01 1.66e-09  5.62e+02     0s
   2   4.70572338e+04 -2.15471218e+06  1.58e-01 7.49e-10  6.81e+01     0s
   3   1.85328275e+04 -2.88578671e+05  1.07e-13 2.64e-10  8.07e+00     0s
   4   4.47717118e+03 -3.01975662e+04  2.15e-13 2.15e-11  9.11e-01     0s
   5   7.54602185e+02 -4.45493103e+03  7.77e-13 3.20e-12  1.37e-01     0s
   6   5.57599431e+02 -1.30470233e+03  3.97e-13 1.02e-12  4.89e-02     0s
   7   4.17020033e+02 -4.85297850e+02  3.06e-13 4.62e-13  2.37e-02     0s
   8   3.18604268e+02 -5.51660175e+01  9.77e-14 9.09e-13  9.82e-03     0s
   9   2.61113419e+02  4.60184768e+01  1.76e-13 4.55e-13  5.65e-03     0s
  10   2.23704667e+02  1.15228501e+02  3.69e-13 4.55e-13  2.85e-03     1s
  11   2.11464125e+02  1.58519762e+02  6.78e-13 9.09e-13  1.39e-03     1s
  12   2.00170075e+02  1.77764962e+02  1.69e-12 4.55e-13  5.89e-04     1s
  13   1.97257139e+02  1.84133827e+02  2.04e-12 9.09e-13  3.45e-04     1s
  14   1.95224367e+02  1.86710204e+02  3.15e-12 4.55e-13  2.24e-04     1s
  15   1.93989586e+02  1.88728725e+02  3.98e-12 4.55e-13  1.38e-04     1s
  16   1.93338665e+02  1.90347948e+02  3.49e-12 4.55e-13  7.86e-05     1s
  17   1.92833071e+02  1.91308253e+02  8.24e-12 4.55e-13  4.01e-05     1s
  18   1.92576193e+02  1.91864968e+02  8.94e-12 4.55e-13  1.87e-05     1s
  19   1.92414310e+02  1.92061010e+02  2.39e-11 4.55e-13  9.29e-06     1s
  20   1.92328486e+02  1.92234853e+02  2.08e-11 9.09e-13  2.46e-06     1s
  21   1.92299834e+02  1.92266548e+02  8.66e-11 9.09e-13  8.75e-07     1s
  22   1.92280610e+02  1.92277343e+02  1.85e-10 4.55e-13  8.59e-08     1s
  23   1.92279594e+02  1.92279169e+02  1.60e-10 4.55e-13  1.12e-08     1s
  24   1.92279484e+02  1.92279442e+02  1.27e-10 5.84e-13  1.13e-09     1s
  25   1.92279472e+02  1.92279467e+02  9.52e-11 4.83e-11  1.39e-10     1s
  26   1.92279471e+02  1.92279471e+02  8.47e-11 9.09e-13  3.25e-13     1s

Barrier solved model in 26 iterations and 0.66 seconds (0.51 work units)
Optimal objective 1.92279471e+02


Root relaxation: objective 1.922795e+02, 2447 iterations, 0.47 seconds (0.30 work units)

    Nodes    |    Current Node    |     Objective Bounds      |     Work
 Expl Unexpl |  Obj  Depth IntInf | Incumbent    BestBd   Gap | It/Node Time

     0     0  192.27947    0   20  331.22228  192.27947  41.9%     -    1s
     0     0  194.87713    0   21  331.22228  194.87713  41.2%     -    2s
H    0     0                     318.0196819  194.87718  38.7%     -    2s
     0     0  194.87718    0   21  318.01968  194.87718  38.7%     -    2s
     0     0  195.90683    0   17  318.01968  195.90683  38.4%     -    3s
H    0     0                     256.6501332  195.97959  23.6%     -    3s
     0     0  195.97959    0   17  256.65013  195.97959  23.6%     -    3s
     0     0  195.98142    0   17  256.65013  195.98142  23.6%     -    3s
     0     0  196.08943    0   13  256.65013  196.08943  23.6%     -    4s
     0     0  196.11274    0   16  256.65013  196.11274  23.6%     -    4s
     0     0  196.11695    0   16  256.65013  196.11695  23.6%     -    4s
     0     0  196.11695    0   16  256.65013  196.11695  23.6%     -    4s
     0     0  196.21621    0   16  256.65013  196.21621  23.5%     -    4s
     0     0  196.22654    0   16  256.65013  196.22654  23.5%     -    5s
     0     0  196.22666    0   15  256.65013  196.22666  23.5%     -    5s
     0     0  198.59098    0   15  256.65013  198.59098  22.6%     -    6s
H    0     0                     224.7350934  198.59098  11.6%     -   38s
     0     2  198.59098    0   15  224.73509  198.59098  11.6%     -   39s
     7    16  198.59098    3   14  224.73509  198.59098  11.6%  1048   40s
H   97   126                     224.0598697  202.21661  9.75%   832   78s
H   99   126                     223.9042954  202.21661  9.69%   825   78s
   247   271  219.77640   10   13  223.90430  203.20675  9.24%   680   80s
   757   456     cutoff   13       223.90430  203.38065  9.17%   548   85s
  1128   554     cutoff   13       223.90430  203.38065  9.17%   503   90s
  1196   554     cutoff   13       223.90430  203.38065  9.17%   496  113s
  1395   636     cutoff   13       223.90430  203.38065  9.17%   486  153s
  1943   721     cutoff   13       223.90430  204.20175  8.80%   453  155s
  2794   891     cutoff   10       223.90430  207.48892  7.33%   426  188s
  3313   937     cutoff   17       223.90430  208.74224  6.77%   413  190s
  4689  1072  222.76628   12   11  223.90430  214.26955  4.30%   381  230s
  6687  1366  221.15300   17    5  223.90430  216.58618  3.27%   346  267s
  7953  1421  222.96401   14    8  223.90430  217.48083  2.87%   329  270s
  8676  1450     cutoff   18       223.90430  217.92213  2.67%   321  298s
  9486  1506     cutoff   11       223.90430  218.15486  2.57%   313  333s
 10178  1570  222.90267   17    5  223.90430  218.66486  2.34%   306  374s
 11094  1547  221.20934   16    6  223.90430  218.99348  2.19%   300  406s
 11989  1539  223.70741   13    8  223.90430  219.13481  2.13%   293  439s
 12899  1512  220.08786   12   10  223.90430  219.16480  2.12%   287  470s
 13895  1368  221.90469   14    8  223.90430  219.16480  2.12%   280  497s
 15395  1044     cutoff   16       223.90430  219.73615  1.86%   272  531s
 17251   113     cutoff   18       223.90430  220.16728  1.67%   262  550s

Cutting planes:
  Learned: 4
  Gomory: 1
  Implied bound: 160
  MIR: 762
  Relax-and-lift: 32

Explored 19495 nodes (4881395 simplex iterations) in 551.01 seconds (735.01 work units)
Thread count was 36 (of 36 available processors)

Solution count 6: 223.904 224.06 224.735 ... 331.222

Optimal solution found (tolerance 1.00e-02)
Best objective 2.239042953570e+02, best bound 2.217244817522e+02, gap 0.9735%

Gurobi 11.0.0 (linux64) logging started Mon Apr 15 09:27:01 2024

Set parameter LogFile to value "/lustre1/scratch/348/vsc34888/JointResearch/05.Models/06.Benchmarking/L.Cont_Investments_per_hour/RTS24_ByStages_nc100/openStarNet_RTS24_ByStages_nc100.log"
Set parameter Method to value 2
Set parameter MIPFocus to value 1
Set parameter Presolve to value 2
Set parameter RINS to value 100
Set parameter MIPGap to value 0.01
Set parameter Threads to value 36
Set parameter TimeLimit to value 259200
Set parameter IterationLimit to value 760000000
Gurobi Optimizer version 11.0.0 build v11.0.0rc2 (linux64 - "Rocky Linux 8.8 (Green Obsidian)")

CPU model: Intel(R) Xeon(R) Gold 6140 CPU @ 2.30GHz, instruction set [SSE2|AVX|AVX2|AVX512]
Thread count: 36 physical cores, 36 logical processors, using up to 36 threads

Optimize a model with 38903 rows, 23427 columns and 92350 nonzeros
Model fingerprint: 0x1cddd96f
Coefficient statistics:
  Matrix range     [3e-02, 3e+02]
  Objective range  [1e+00, 1e+00]
  Bounds range     [4e-04, 3e+00]
  RHS range        [4e-04, 4e+01]
Presolve removed 33070 rows and 13481 columns
Presolve time: 0.05s
Presolved: 5833 rows, 10046 columns, 25400 nonzeros

Ordering time: 0.00s

Barrier statistics:
 AA' NZ     : 1.340e+04
 Factor NZ  : 4.211e+04 (roughly 5 MB of memory)
 Factor Ops : 5.166e+05 (less than 1 second per iteration)
 Threads    : 1

                  Objective                Residual
Iter       Primal          Dual         Primal    Dual     Compl     Time
   0   4.52759135e+06 -5.38812544e+07  1.32e+01 1.69e+03  4.02e+04     0s
   1   4.03222329e+05 -3.92881667e+07  1.10e+00 2.32e-11  5.19e+03     0s
   2   1.02995180e+05 -1.57961201e+07  2.42e-01 3.70e-11  1.36e+03     0s
   3   4.90280230e+04 -4.24670226e+06  6.26e-02 2.29e-11  3.13e+02     0s
   4   3.15806188e+04 -6.87858303e+05  2.74e-03 1.80e-11  4.63e+01     0s
   5   1.86540638e+04 -1.89447472e+05  2.87e-06 1.17e-11  1.32e+01     0s
   6   8.43918024e+03 -3.81292570e+04  5.37e-07 7.28e-12  2.96e+00     0s
   7   1.40454639e+03 -2.76272574e+03  3.93e-08 5.46e-12  2.65e-01     0s
   8   6.02504200e+02 -6.41875619e+02  4.44e-09 7.28e-12  7.92e-02     0s
   9   4.04108204e+02 -2.04548236e+02  1.47e-09 3.64e-12  3.87e-02     0s
  10   3.30616455e+02  9.94382448e-01  7.65e-10 7.28e-12  2.10e-02     0s
  11   2.70780435e+02  1.33371073e+02  3.19e-10 3.64e-12  8.75e-03     0s
  12   2.46619174e+02  1.82845464e+02  1.46e-10 3.64e-12  4.06e-03     0s
  13   2.32263450e+02  2.15167539e+02  4.94e-11 5.46e-12  1.09e-03     0s
  14   2.24656985e+02  2.22229799e+02  3.59e-12 3.64e-12  1.55e-04     0s
  15   2.23958518e+02  2.23741100e+02  1.16e-11 7.28e-12  1.38e-05     0s
  16   2.23909250e+02  2.23880588e+02  5.59e-12 7.28e-12  1.82e-06     0s
  17   2.23904362e+02  2.23904185e+02  2.32e-12 3.64e-12  1.13e-08     0s
  18   2.23904295e+02  2.23904295e+02  4.41e-12 3.64e-12  1.22e-14     0s

Barrier solved model in 18 iterations and 0.13 seconds (0.11 work units)
Optimal objective 2.23904295e+02

Crossover log...

    1148 DPushes remaining with DInf 0.0000000e+00                 0s
       0 DPushes remaining with DInf 0.0000000e+00                 0s

     271 PPushes remaining with PInf 0.0000000e+00                 0s
       0 PPushes remaining with PInf 0.0000000e+00                 0s

  Push phase complete: Pinf 0.0000000e+00, Dinf 4.5158428e-12      0s

Iteration    Objective       Primal Inf.    Dual Inf.      Time
     289    2.2390430e+02   0.000000e+00   0.000000e+00      0s

Use crossover to convert LP symmetric solution to basic solution...
Crossover log...

       0 DPushes remaining with DInf 0.0000000e+00                 0s

     150 PPushes remaining with PInf 0.0000000e+00                 0s
       0 PPushes remaining with PInf 0.0000000e+00                 0s

  Push phase complete: Pinf 0.0000000e+00, Dinf 1.1932938e-12      0s

Iteration    Objective       Primal Inf.    Dual Inf.      Time
     446    2.2390430e+02   0.000000e+00   0.000000e+00      0s

Solved in 446 iterations and 0.18 seconds (0.13 work units)
Optimal objective  2.239042954e+02
